c CNF file corresponding to a (partial) station packing problem.
p cnf 6802 229
1 2 3 4 5 6 7 8 9 10 11 12 13 14 0
-1 -2 0
-1 -3 0
-1 -4 0
-1 -5 0
-1 -6 0
-1 -7 0
-1 -8 0
-1 -9 0
-1 -10 0
-1 -11 0
-1 -12 0
-1 -13 0
-1 -14 0
-2 -3 0
-2 -4 0
-2 -5 0
-2 -6 0
-2 -7 0
-2 -8 0
-2 -9 0
-2 -10 0
-2 -11 0
-2 -12 0
-2 -13 0
-2 -14 0
-3 -4 0
-3 -5 0
-3 -6 0
-3 -7 0
-3 -8 0
-3 -9 0
-3 -10 0
-3 -11 0
-3 -12 0
-3 -13 0
-3 -14 0
-4 -5 0
-4 -6 0
-4 -7 0
-4 -8 0
-4 -9 0
-4 -10 0
-4 -11 0
-4 -12 0
-4 -13 0
-4 -14 0
-5 -6 0
-5 -7 0
-5 -8 0
-5 -9 0
-5 -10 0
-5 -11 0
-5 -12 0
-5 -13 0
-5 -14 0
-6 -7 0
-6 -8 0
-6 -9 0
-6 -10 0
-6 -11 0
-6 -12 0
-6 -13 0
-6 -14 0
-7 -8 0
-7 -9 0
-7 -10 0
-7 -11 0
-7 -12 0
-7 -13 0
-7 -14 0
-8 -9 0
-8 -10 0
-8 -11 0
-8 -12 0
-8 -13 0
-8 -14 0
-9 -10 0
-9 -11 0
-9 -12 0
-9 -13 0
-9 -14 0
-10 -11 0
-10 -12 0
-10 -13 0
-10 -14 0
-11 -12 0
-11 -13 0
-11 -14 0
-12 -13 0
-12 -14 0
-13 -14 0
6786 6787 6788 6789 6790 6791 6792 6793 6794 6795 6796 6797 6798 6799 6800 6801 6802 0
-6786 -6787 0
-6786 -6788 0
-6786 -6789 0
-6786 -6790 0
-6786 -6791 0
-6786 -6792 0
-6786 -6793 0
-6786 -6794 0
-6786 -6795 0
-6786 -6796 0
-6786 -6797 0
-6786 -6798 0
-6786 -6799 0
-6786 -6800 0
-6786 -6801 0
-6786 -6802 0
-6787 -6788 0
-6787 -6789 0
-6787 -6790 0
-6787 -6791 0
-6787 -6792 0
-6787 -6793 0
-6787 -6794 0
-6787 -6795 0
-6787 -6796 0
-6787 -6797 0
-6787 -6798 0
-6787 -6799 0
-6787 -6800 0
-6787 -6801 0
-6787 -6802 0
-6788 -6789 0
-6788 -6790 0
-6788 -6791 0
-6788 -6792 0
-6788 -6793 0
-6788 -6794 0
-6788 -6795 0
-6788 -6796 0
-6788 -6797 0
-6788 -6798 0
-6788 -6799 0
-6788 -6800 0
-6788 -6801 0
-6788 -6802 0
-6789 -6790 0
-6789 -6791 0
-6789 -6792 0
-6789 -6793 0
-6789 -6794 0
-6789 -6795 0
-6789 -6796 0
-6789 -6797 0
-6789 -6798 0
-6789 -6799 0
-6789 -6800 0
-6789 -6801 0
-6789 -6802 0
-6790 -6791 0
-6790 -6792 0
-6790 -6793 0
-6790 -6794 0
-6790 -6795 0
-6790 -6796 0
-6790 -6797 0
-6790 -6798 0
-6790 -6799 0
-6790 -6800 0
-6790 -6801 0
-6790 -6802 0
-6791 -6792 0
-6791 -6793 0
-6791 -6794 0
-6791 -6795 0
-6791 -6796 0
-6791 -6797 0
-6791 -6798 0
-6791 -6799 0
-6791 -6800 0
-6791 -6801 0
-6791 -6802 0
-6792 -6793 0
-6792 -6794 0
-6792 -6795 0
-6792 -6796 0
-6792 -6797 0
-6792 -6798 0
-6792 -6799 0
-6792 -6800 0
-6792 -6801 0
-6792 -6802 0
-6793 -6794 0
-6793 -6795 0
-6793 -6796 0
-6793 -6797 0
-6793 -6798 0
-6793 -6799 0
-6793 -6800 0
-6793 -6801 0
-6793 -6802 0
-6794 -6795 0
-6794 -6796 0
-6794 -6797 0
-6794 -6798 0
-6794 -6799 0
-6794 -6800 0
-6794 -6801 0
-6794 -6802 0
-6795 -6796 0
-6795 -6797 0
-6795 -6798 0
-6795 -6799 0
-6795 -6800 0
-6795 -6801 0
-6795 -6802 0
-6796 -6797 0
-6796 -6798 0
-6796 -6799 0
-6796 -6800 0
-6796 -6801 0
-6796 -6802 0
-6797 -6798 0
-6797 -6799 0
-6797 -6800 0
-6797 -6801 0
-6797 -6802 0
-6798 -6799 0
-6798 -6800 0
-6798 -6801 0
-6798 -6802 0
-6799 -6800 0
-6799 -6801 0
-6799 -6802 0
-6800 -6801 0
-6800 -6802 0
-6801 -6802 0
